(set-logic QF_S)
(declare-fun var0 () String)
(declare-fun var1 () Int)
(declare-fun var2 () Int)
(declare-fun var3 () String)
(declare-fun var4 () String)
(declare-fun var5 () String)
(declare-fun var6 () Int)
(assert (not (str.in.re var0 re.allchar)))
(assert (str.contains (str.substr "mrqg" var1 var2) (str.replace var3 var4 var5)))
(assert (< (str.to.int var3) (str.indexof "9\\""J>]Z,]`" var4)))
(assert (str.in.re var4 re.allchar))
(check-sat)